NAME : eil101.tsp
COMMENT : Optimal tour for eil101.tsp
TYPE : TOUR
DIMENSION : 101
Total Length: 681.5834533122008
TOUR_SECTION
1
69
31
88
62
19
48
7
82
8
46
47
36
49
64
11
63
90
32
10
70
30
51
20
66
65
71
35
9
34
78
81
33
50
76
77
3
79
29
24
54
80
68
12
26
4
55
25
39
67
23
56
75
41
22
74
72
73
21
40
58
53
101
28
27
52
18
83
45
17
84
60
5
61
16
86
38
14
44
91
85
93
98
100
37
92
59
99
96
95
97
87
42
43
15
57
2
13
94
6
89
-1
EOF
